p td 22 120
3 1
4 1
5 3
5 4
6 5
6 4
6 3
7 4
8 5
8 6
8 3
8 7
9 8
9 2
9 3
10 3
10 4
10 8
10 7
10 2
11 8
11 3
11 9
11 1
12 11
12 3
12 2
12 9
12 1
13 4
13 12
13 6
13 5
13 1
13 3
13 8
13 7
14 13
14 7
14 10
14 4
14 12
14 5
14 2
14 11
15 13
15 7
15 6
15 11
15 12
15 5
15 9
15 4
15 2
15 8
16 7
16 12
16 5
16 11
16 8
16 10
16 6
16 1
17 9
17 11
17 7
17 8
17 5
18 17
18 6
18 10
18 9
18 8
18 2
18 15
18 13
18 14
19 5
19 6
19 8
19 17
19 4
19 11
19 1
19 14
19 15
20 6
20 13
20 1
20 4
20 17
20 5
20 18
20 2
20 15
21 16
21 10
21 20
21 19
21 2
21 18
21 1
21 8
21 9
21 4
22 6
22 8
22 14
22 1
22 9
22 21
22 3
22 10
22 12
22 11
22 13
22 19
22 15
22 2
22 7
